c seed= 4411905
p cnf 8 32
-1 -8 6 0
-5 8 -4 0
-3 6 4 0
7 8 1 0
6 -5 7 0
1 8 7 0
5 -3 -1 0
-3 -2 -6 0
5 1 8 0
8 -1 -4 0
5 -4 6 0
6 -4 8 0
5 -6 -1 0
5 -2 -6 0
-8 -7 -4 0
3 8 -2 0
6 5 7 0
4 5 6 0
4 2 -6 0
4 -2 8 0
-7 -5 4 0
-3 -2 -7 0
-8 -1 -5 0
-6 1 8 0
-1 8 6 0
8 -2 -1 0
4 -1 6 0
-1 2 -6 0
-3 -8 2 0
-2 -5 -7 0
5 -3 -2 0
2 -5 -1 0
